c Output_time 26.03.2020 18:13:16_+0100 1585242796925839054
c ** Program information **
c program_name                          "QBRG_debug"
c version                               "0.3.20"
c date                                  "25.3.2020"
c gid_id                                "673970833836058123f633335630c185360d632e"
c author                                "Oliver Kullmann"
c url                                   "https://github.com/OKullmann/oklibrary/blob/master/Satisfiability/Transformers/Generators/Random/QBRG.cpp"
c ** Machine information **
c machine_name                          "chyna-Lenovo-G50-70"
c bogomips                              3791.08
c ** Compilation information **
c compiler_version                      "g++ 7.5.0"
c compilation_date                      "Mar_26_2020 11:16:30"
c compilation_options                   "--std=c++17 -pedantic -fmax-errors=5 -Wall -Wextra -g -D_GLIBCXX_DEBUG"
c NDEBUG                                0
c OPTIMIZE                              0
c ** Parameters **
c command-line                          "./QBRG_debug" "e40 a40 40" "357*1,1|2-2,1|3-3,1" "" "1,t" ""
c output                                "QuBlRaGe_120_357_1585242796921968695.qdimacs"
c options                               "filtered,renamed"
c num_quantifier_blocks                 3
c  quantifier_blocks                    1:e1-40 2:a41-80 3:e81-120
c num_clause-blocks                     1
c  clause-blocks                        357 * {1-40,1,1/2} | {41-80,1,1/2} | {81-120,1,1/2}
c num_e-seeds                           30+2=32
c  e-seeds                              1 0 1 0 4 120 2 40 1 40 0 40 1 357 3 1 1 1 1 2 2 2 1 1 2 3 3 1 1 2 1 1585242796921968060
p cnf 120 357
e 1 2 3 4 5 6 7 8 9 10 11 12 13 14 15 16 17 18 19 20 21 22 23 24 25 26 27 28 29 30 31 32 33 34 35 36 37 38 39 40 0
a 41 42 43 44 45 46 47 48 49 50 51 52 53 54 55 56 57 58 59 60 61 62 63 64 65 66 67 68 69 70 71 72 73 74 75 76 77 78 79 80 0
e 81 82 83 84 85 86 87 88 89 90 91 92 93 94 95 96 97 98 99 100 101 102 103 104 105 106 107 108 109 110 111 112 113 114 115 116 117 118 119 120 0
39 47 -81 0
35 -53 -81 0
40 -56 -81 0
-23 72 -81 0
5 74 -81 0
16 -47 81 0
-29 47 81 0
9 51 81 0
22 -54 81 0
36 -62 81 0
-33 -66 81 0
-1 -68 81 0
-27 -48 -82 0
31 52 -82 0
-39 -54 -82 0
21 54 -82 0
17 55 -82 0
34 62 -82 0
18 -78 -82 0
29 -45 82 0
-4 -55 82 0
-32 59 82 0
-32 -61 82 0
-23 46 -83 0
-16 77 -83 0
5 80 -83 0
26 51 83 0
-24 52 83 0
-28 57 83 0
35 -76 83 0
33 -41 -84 0
40 43 -84 0
40 -73 -84 0
19 -47 84 0
-15 64 84 0
-21 -75 84 0
-14 79 84 0
-39 -53 -85 0
15 -77 -85 0
39 -78 -85 0
-38 50 85 0
-14 -72 85 0
4 -76 85 0
24 41 -86 0
-12 45 -86 0
-9 -59 -86 0
-37 66 -86 0
24 68 -86 0
-32 -75 -86 0
40 -75 -86 0
30 79 -86 0
-37 -43 86 0
18 -46 86 0
11 58 86 0
-31 -68 86 0
10 69 86 0
29 78 86 0
6 62 -87 0
32 -46 87 0
-3 -56 87 0
14 -56 87 0
22 -72 87 0
29 -41 -88 0
-40 -65 -88 0
-18 79 -88 0
-26 53 88 0
-9 -57 88 0
-15 65 88 0
-37 -67 88 0
16 73 88 0
-33 -43 -89 0
-7 47 -89 0
-37 -50 -89 0
31 52 -89 0
27 54 -89 0
9 -62 -89 0
25 63 -89 0
3 -80 -89 0
-12 41 89 0
-33 -43 89 0
-31 55 89 0
-29 -59 89 0
-5 67 89 0
-33 77 89 0
-34 43 -90 0
17 59 -90 0
-32 -69 -90 0
-36 72 -90 0
-29 -49 90 0
19 -57 90 0
-34 42 -91 0
9 53 -91 0
5 64 -91 0
32 -43 91 0
40 47 91 0
-9 -60 91 0
-26 -62 91 0
39 -66 91 0
19 71 91 0
-25 -76 91 0
-29 78 91 0
9 44 -92 0
37 -52 -92 0
6 -56 -92 0
-12 59 -92 0
-13 -60 -92 0
27 73 -92 0
14 -44 92 0
7 50 92 0
-28 -61 92 0
22 -67 92 0
27 79 92 0
21 80 92 0
-17 -58 -93 0
12 77 -93 0
-40 -78 -93 0
-26 -57 93 0
21 80 93 0
17 -47 -94 0
-1 -43 94 0
31 -49 94 0
30 55 94 0
5 60 94 0
-25 63 94 0
20 66 94 0
11 -41 -95 0
30 45 -95 0
31 45 -95 0
-30 49 -95 0
-1 -55 -95 0
-33 -75 -95 0
-29 77 -95 0
33 42 95 0
8 -46 95 0
-24 -48 95 0
3 49 95 0
-13 -56 95 0
-12 59 95 0
-10 -62 95 0
18 -66 95 0
-5 -70 95 0
-18 70 95 0
-4 49 -96 0
-35 -54 -96 0
-3 58 -96 0
-7 -62 -96 0
-34 -70 -96 0
-17 -62 96 0
2 65 96 0
23 -76 96 0
-38 43 -97 0
-2 -49 -97 0
8 50 -97 0
-11 68 -97 0
39 68 -97 0
25 -50 97 0
8 52 97 0
-18 -61 97 0
-20 -68 97 0
-13 -69 97 0
-18 -45 -98 0
32 50 -98 0
22 62 -98 0
-23 -67 -98 0
-1 72 -98 0
9 74 -98 0
-8 54 98 0
1 69 98 0
3 -76 98 0
39 -76 98 0
19 76 98 0
-9 51 -99 0
36 -58 -99 0
-28 62 -99 0
-31 -70 -99 0
-35 72 -99 0
-15 73 -99 0
7 -74 -99 0
-33 75 -99 0
40 -48 99 0
-19 -68 99 0
5 -41 -100 0
-6 44 -100 0
24 51 -100 0
30 -54 -100 0
-32 64 -100 0
-16 65 -100 0
-21 66 -100 0
-23 79 100 0
-11 45 -101 0
38 -56 -101 0
-25 -61 -101 0
-36 -64 -101 0
16 65 -101 0
30 70 -101 0
-36 44 101 0
-20 65 101 0
-7 66 101 0
-28 67 101 0
5 -69 101 0
-20 -78 101 0
-13 -56 -102 0
26 44 102 0
-28 56 102 0
-34 57 102 0
4 51 -103 0
12 67 -103 0
3 70 -103 0
-28 -76 -103 0
-36 -76 -103 0
-17 63 103 0
-11 -75 103 0
-39 -78 103 0
-40 -66 -104 0
33 70 -104 0
-8 -71 -104 0
-27 -75 -104 0
34 -43 104 0
40 44 104 0
11 49 104 0
-11 68 104 0
34 -42 -105 0
20 -44 -105 0
25 44 -105 0
13 -50 -105 0
-28 -55 -105 0
40 60 -105 0
10 -62 -105 0
3 77 -105 0
27 47 105 0
-35 68 105 0
-20 -71 105 0
-30 -53 -106 0
-37 -58 -106 0
37 58 -106 0
-12 62 -106 0
-14 64 -106 0
-12 67 -106 0
3 80 -106 0
-19 -47 106 0
28 -56 106 0
-20 -71 106 0
-31 -49 -107 0
27 -66 -107 0
25 -68 -107 0
-17 73 -107 0
-16 -42 107 0
-34 44 107 0
-24 63 107 0
36 -76 107 0
8 -47 -108 0
-35 50 -108 0
39 -58 -108 0
31 -60 -108 0
9 65 -108 0
-15 68 -108 0
-23 -75 -108 0
-8 75 -108 0
34 -41 108 0
-5 -52 108 0
23 71 108 0
16 -72 108 0
-1 -74 108 0
-25 -79 108 0
-28 47 -109 0
2 -57 -109 0
1 -58 -109 0
-7 58 -109 0
-22 68 -109 0
-25 -77 -109 0
-10 79 -109 0
20 -46 109 0
4 -47 109 0
-1 49 109 0
-25 -68 109 0
6 -79 109 0
4 -67 -110 0
17 69 -110 0
36 69 -110 0
-16 65 110 0
-23 -72 110 0
3 74 110 0
18 77 110 0
15 -43 -111 0
-31 -49 -111 0
-23 65 -111 0
-16 -79 -111 0
13 -47 111 0
-29 58 111 0
-13 60 111 0
-18 -75 111 0
-33 41 -112 0
16 51 -112 0
29 55 -112 0
19 66 -112 0
36 -77 -112 0
-6 -80 -112 0
33 -67 -113 0
9 68 -113 0
-40 72 -113 0
21 -43 113 0
-8 47 113 0
26 56 113 0
-29 63 113 0
-35 -43 -114 0
21 -54 -114 0
-29 55 -114 0
6 69 -114 0
14 -48 114 0
10 53 114 0
-4 -64 114 0
-3 -41 -115 0
-8 -42 -115 0
-34 53 -115 0
-29 -55 115 0
33 -57 115 0
-9 60 115 0
40 74 115 0
-29 76 115 0
-34 -78 115 0
31 -42 -116 0
36 50 -116 0
-19 68 -116 0
16 78 -116 0
29 41 116 0
28 42 116 0
-23 -77 116 0
30 -64 -117 0
-40 -66 -117 0
39 -71 117 0
-20 73 117 0
36 73 117 0
-27 -74 117 0
-37 -75 117 0
-3 79 117 0
19 -45 -118 0
32 48 -118 0
-33 55 -118 0
-8 56 -118 0
-23 49 118 0
10 65 118 0
-21 -66 118 0
31 66 118 0
7 47 -119 0
-27 -54 -119 0
-14 -71 -119 0
-5 -44 119 0
-25 -44 119 0
1 -48 119 0
-31 -54 119 0
21 -56 119 0
34 41 -120 0
20 54 -120 0
25 65 -120 0
-18 68 -120 0
10 -58 120 0
2 76 120 0
